p edge 728 693
e 1 2
e 1 3
e 1 4
e 1 5
e 1 6
e 1 7
e 1 8
e 1 9
e 1 10
e 1 11
e 1 12
e 1 13
e 1 14
e 1 15
e 1 16
e 1 17
e 1 18
e 1 19
e 1 20
e 1 21
e 1 22
e 23 24
e 23 25
e 23 26
e 23 27
e 23 28
e 23 29
e 23 30
e 23 31
e 23 32
e 23 33
e 23 34
e 23 35
e 23 36
e 23 37
e 23 38
e 23 39
e 23 40
e 23 41
e 23 42
e 23 43
e 23 44
e 23 45
e 23 46
e 23 47
e 23 48
e 23 49
e 23 50
e 23 51
e 23 52
e 23 53
e 54 55
e 54 56
e 54 57
e 54 58
e 54 59
e 54 60
e 54 61
e 54 62
e 54 63
e 54 64
e 65 66
e 65 67
e 65 68
e 65 69
e 65 70
e 65 71
e 65 72
e 65 73
e 65 74
e 65 75
e 65 76
e 65 77
e 65 78
e 65 79
e 65 80
e 65 81
e 65 82
e 65 83
e 65 84
e 65 85
e 65 86
e 87 88
e 87 89
e 87 90
e 87 91
e 87 92
e 87 93
e 87 94
e 87 95
e 87 96
e 87 97
e 98 99
e 98 100
e 98 101
e 98 102
e 98 103
e 98 104
e 98 105
e 98 106
e 98 107
e 98 108
e 98 109
e 98 110
e 98 111
e 98 112
e 98 113
e 98 114
e 98 115
e 98 116
e 98 117
e 98 118
e 119 120
e 119 121
e 119 122
e 119 123
e 119 124
e 119 125
e 119 126
e 119 127
e 119 128
e 119 129
e 119 130
e 119 131
e 119 132
e 119 133
e 119 134
e 119 135
e 119 136
e 119 137
e 119 138
e 119 139
e 119 140
e 119 141
e 142 143
e 142 144
e 142 145
e 142 146
e 142 147
e 142 148
e 142 149
e 142 150
e 142 151
e 142 152
e 142 153
e 142 154
e 142 155
e 142 156
e 142 157
e 158 159
e 158 160
e 158 161
e 158 162
e 158 163
e 158 164
e 158 165
e 158 166
e 158 167
e 158 168
e 158 169
e 158 170
e 158 171
e 158 172
e 158 173
e 158 174
e 158 175
e 158 176
e 158 177
e 158 178
e 158 179
e 158 180
e 158 181
e 158 182
e 158 183
e 158 184
e 158 185
e 158 186
e 158 187
e 188 189
e 188 190
e 188 191
e 188 192
e 188 193
e 188 194
e 188 195
e 188 196
e 188 197
e 188 198
e 199 200
e 199 201
e 199 202
e 199 203
e 199 204
e 199 205
e 199 206
e 199 207
e 199 208
e 199 209
e 199 210
e 199 211
e 199 212
e 199 213
e 199 214
e 199 215
e 199 216
e 217 218
e 217 219
e 217 220
e 217 221
e 217 222
e 217 223
e 217 224
e 217 225
e 217 226
e 217 227
e 217 228
e 217 229
e 217 230
e 217 231
e 217 232
e 217 233
e 234 235
e 234 236
e 234 237
e 234 238
e 234 239
e 234 240
e 234 241
e 234 242
e 234 243
e 234 244
e 234 245
e 234 246
e 234 247
e 234 248
e 234 249
e 234 250
e 234 251
e 234 252
e 234 253
e 234 254
e 255 256
e 255 257
e 255 258
e 255 259
e 255 260
e 255 261
e 255 262
e 255 263
e 255 264
e 255 265
e 255 266
e 255 267
e 255 268
e 255 269
e 255 270
e 255 271
e 255 272
e 255 273
e 255 274
e 255 275
e 255 276
e 255 277
e 255 278
e 279 280
e 279 281
e 279 282
e 279 283
e 279 284
e 279 285
e 279 286
e 279 287
e 279 288
e 279 289
e 279 290
e 279 291
e 279 292
e 279 293
e 279 294
e 279 295
e 279 296
e 279 297
e 298 299
e 298 300
e 298 301
e 298 302
e 298 303
e 298 304
e 298 305
e 298 306
e 298 307
e 298 308
e 298 309
e 298 310
e 298 311
e 298 312
e 298 313
e 298 314
e 298 315
e 298 316
e 298 317
e 298 318
e 319 320
e 319 321
e 319 322
e 319 323
e 319 324
e 319 325
e 319 326
e 319 327
e 319 328
e 319 329
e 319 330
e 319 331
e 319 332
e 319 333
e 319 334
e 319 335
e 336 337
e 336 338
e 336 339
e 336 340
e 336 341
e 336 342
e 336 343
e 336 344
e 336 345
e 336 346
e 336 347
e 336 348
e 336 349
e 336 350
e 336 351
e 336 352
e 336 353
e 336 354
e 336 355
e 336 356
e 357 358
e 357 359
e 357 360
e 357 361
e 357 362
e 357 363
e 357 364
e 357 365
e 357 366
e 357 367
e 357 368
e 357 369
e 357 370
e 357 371
e 372 373
e 372 374
e 372 375
e 372 376
e 372 377
e 372 378
e 372 379
e 372 380
e 372 381
e 372 382
e 372 383
e 372 384
e 372 385
e 372 386
e 372 387
e 372 388
e 372 389
e 372 390
e 372 391
e 372 392
e 372 393
e 372 394
e 372 395
e 372 396
e 372 397
e 372 398
e 399 400
e 399 401
e 399 402
e 399 403
e 399 404
e 399 405
e 399 406
e 399 407
e 399 408
e 399 409
e 399 410
e 399 411
e 399 412
e 399 413
e 399 414
e 399 415
e 399 416
e 399 417
e 399 418
e 399 419
e 399 420
e 399 421
e 422 423
e 422 424
e 422 425
e 422 426
e 422 427
e 422 428
e 422 429
e 422 430
e 422 431
e 422 432
e 433 434
e 433 435
e 433 436
e 433 437
e 433 438
e 433 439
e 433 440
e 433 441
e 433 442
e 433 443
e 433 444
e 433 445
e 433 446
e 433 447
e 433 448
e 433 449
e 433 450
e 433 451
e 433 452
e 433 453
e 433 454
e 433 455
e 456 457
e 456 458
e 456 459
e 456 460
e 456 461
e 456 462
e 456 463
e 456 464
e 456 465
e 456 466
e 456 467
e 456 468
e 456 469
e 456 470
e 456 471
e 456 472
e 456 473
e 456 474
e 456 475
e 456 476
e 456 477
e 456 478
e 456 479
e 480 481
e 480 482
e 480 483
e 480 484
e 480 485
e 480 486
e 480 487
e 480 488
e 480 489
e 480 490
e 480 491
e 480 492
e 480 493
e 480 494
e 480 495
e 480 496
e 480 497
e 480 498
e 480 499
e 480 500
e 480 501
e 480 502
e 480 503
e 504 505
e 504 506
e 504 507
e 504 508
e 504 509
e 504 510
e 504 511
e 504 512
e 504 513
e 504 514
e 504 515
e 504 516
e 504 517
e 504 518
e 504 519
e 504 520
e 504 521
e 504 522
e 504 523
e 504 524
e 504 525
e 504 526
e 504 527
e 504 528
e 529 530
e 529 531
e 529 532
e 529 533
e 529 534
e 529 535
e 529 536
e 529 537
e 529 538
e 529 539
e 529 540
e 529 541
e 542 543
e 542 544
e 542 545
e 542 546
e 542 547
e 542 548
e 542 549
e 542 550
e 542 551
e 542 552
e 542 553
e 542 554
e 542 555
e 542 556
e 542 557
e 542 558
e 542 559
e 542 560
e 542 561
e 542 562
e 542 563
e 564 565
e 564 566
e 564 567
e 564 568
e 564 569
e 564 570
e 564 571
e 564 572
e 564 573
e 564 574
e 564 575
e 564 576
e 564 577
e 564 578
e 564 579
e 564 580
e 564 581
e 564 582
e 564 583
e 564 584
e 564 585
e 564 586
e 564 587
e 564 588
e 564 589
e 564 590
e 564 591
e 564 592
e 564 593
e 564 594
e 595 596
e 595 597
e 595 598
e 595 599
e 595 600
e 595 601
e 595 602
e 595 603
e 595 604
e 595 605
e 595 606
e 595 607
e 595 608
e 595 609
e 595 610
e 595 611
e 595 612
e 595 613
e 595 614
e 615 616
e 615 617
e 615 618
e 615 619
e 615 620
e 615 621
e 615 622
e 615 623
e 615 624
e 615 625
e 615 626
e 615 627
e 615 628
e 615 629
e 615 630
e 615 631
e 615 632
e 615 633
e 615 634
e 615 635
e 615 636
e 615 637
e 615 638
e 615 639
e 615 640
e 615 641
e 615 642
e 615 643
e 644 645
e 644 646
e 644 647
e 644 648
e 644 649
e 644 650
e 644 651
e 644 652
e 644 653
e 644 654
e 644 655
e 644 656
e 644 657
e 644 658
e 644 659
e 644 660
e 644 661
e 644 662
e 644 663
e 644 664
e 644 665
e 644 666
e 644 667
e 644 668
e 644 669
e 644 670
e 644 671
e 644 672
e 644 673
e 674 675
e 674 676
e 674 677
e 674 678
e 674 679
e 674 680
e 674 681
e 674 682
e 674 683
e 674 684
e 674 685
e 674 686
e 674 687
e 674 688
e 674 689
e 674 690
e 674 691
e 674 692
e 674 693
e 674 694
e 674 695
e 696 697
e 696 698
e 696 699
e 696 700
e 696 701
e 696 702
e 696 703
e 696 704
e 696 705
e 696 706
e 696 707
e 696 708
e 696 709
e 696 710
e 696 711
e 696 712
e 696 713
e 714 715
e 714 716
e 714 717
e 714 718
e 714 719
e 714 720
e 714 721
e 714 722
e 714 723
e 714 724
e 714 725
e 714 726
e 714 727
e 714 728
